language ESSENCE' 1.0
letting lastdx=94
letting cage be [
[40,11,5,11,6,10,6,10,5,9,5],
[55,5,8,5,7,6,7,6,6,7,6],
[2,15,7,0,0, 0,0, 0,0, 0,0],
[12,15,15,0,0, 0,0, 0,0, 0,0],
[21,5,2,4,2,3,2,0,0, 0,0],
[22,7,2,8,2,8,3,0,0, 0,0],
[21,1,16,2,16,0,0, 0,0, 0,0],
[39,5,5,5,4,6,4,0,0, 0,0],
[36,16,4,16,5,16,6,0,0, 0,0],
[29,11,16,12,16,13,16,0,0, 0,0],
[14,13,2,0,0, 0,0, 0,0, 0,0],
[24,12,15,12,14,0,0, 0,0, 0,0],
[32,15,11,15,12,16,12,0,0, 0,0],
[2,13,13,0,0, 0,0, 0,0, 0,0],
[28,1,13,1,14,1,15,2,15,0,0],
[4,2,2,0,0, 0,0, 0,0, 0,0],
[42,13,5,12,5,12,4,11,4,11,3],
[18,8,10,8,9,0,0, 0,0, 0,0],
[13,16,13,0,0, 0,0, 0,0, 0,0],
[12,6,9,0,0, 0,0, 0,0, 0,0],
[13,2,10,3,10,4,10,4,9,0,0],
[28,15,16,14,16,14,15,0,0, 0,0],
[40,14,10,15,10,16,10,16,11,0,0],
[26,12,11,12,12,13,12,0,0, 0,0],
[2,5,11,0,0, 0,0, 0,0, 0,0],
[28,7,13,6,13,6,14,0,0, 0,0],
[30,8,11,8,12,0,0, 0,0, 0,0],
[21,6,3,6,2,6,1,0,0, 0,0],
[37,9,15,10,15,10,16,9,16,8,16],
[19,5,3,4,3,4,4,0,0, 0,0],
[11,1,2,0,0, 0,0, 0,0, 0,0],
[47,4,16,4,15,4,14,4,13,0,0],
[5,2,1,1,1,0,0, 0,0, 0,0],
[41,10,12,9,12,9,13,9,14,0,0],
[34,13,15,13,14,14,14,15,14,16,14],
[12,13,10,0,0, 0,0, 0,0, 0,0],
[50,10,10,10,9,11,9,11,10,12,10],
[13,2,11,0,0, 0,0, 0,0, 0,0],
[48,3,8,3,9,2,9,2,8,2,7],
[19,14,8,15,8,0,0, 0,0, 0,0],
[43,7,1,8,1,9,1,9,2,9,3],
[1,10,3,0,0, 0,0, 0,0, 0,0],
[24,6,5,7,5,7,4,7,3,0,0],
[54,13,1,12,1,11,1,10,1,10,2],
[11,4,11,0,0, 0,0, 0,0, 0,0],
[39,8,6,8,7,7,7,7,8,6,8],
[34,14,2,14,3,13,3,12,3,0,0],
[23,8,8,9,8,10,8,0,0, 0,0],
[3,7,9,0,0, 0,0, 0,0, 0,0],
[5,11,12,0,0, 0,0, 0,0, 0,0],
[7,7,11,0,0, 0,0, 0,0, 0,0],
[12,3,12,3,11,0,0, 0,0, 0,0],
[25,14,13,15,13,14,12,0,0, 0,0],
[17,5,10,5,9,0,0, 0,0, 0,0],
[7,9,4,10,4,0,0, 0,0, 0,0],
[5,3,13,3,14,0,0, 0,0, 0,0],
[32,14,7,13,7,13,6,0,0, 0,0],
[39,8,14,8,13,8,15,7,15,7,14],
[9,16,15,16,16,0,0, 0,0, 0,0],
[6,15,1,14,1,0,0, 0,0, 0,0],
[11,2,14,0,0, 0,0, 0,0, 0,0],
[13,3,7,0,0, 0,0, 0,0, 0,0],
[28,1,9,1,8,1,7,0,0, 0,0],
[37,4,6,4,5,5,6,0,0, 0,0],
[9,2,3,0,0, 0,0, 0,0, 0,0],
[3,2,13,0,0, 0,0, 0,0, 0,0],
[8,1,10,0,0, 0,0, 0,0, 0,0],
[13,13,11,14,11,0,0, 0,0, 0,0],
[15,16,3,0,0, 0,0, 0,0, 0,0],
[19,7,10,6,10,0,0, 0,0, 0,0],
[25,9,7,9,6,0,0, 0,0, 0,0],
[49,15,6,15,5,15,4,15,3,15,2],
[27,11,7,10,7,12,7,12,6,0,0],
[33,9,9,9,10,9,11,0,0, 0,0],
[16,3,1,0,0, 0,0, 0,0, 0,0],
[25,16,7,16,8,16,9,0,0, 0,0],
[27,5,13,5,14,0,0, 0,0, 0,0],
[5,4,8,4,7,0,0, 0,0, 0,0],
[32,1,3,1,4,1,5,1,6,0,0],
[38,1,11,1,12,2,12,0,0, 0,0],
[16,2,6,3,6,0,0, 0,0, 0,0],
[21,3,15,3,16,0,0, 0,0, 0,0],
[15,4,1,5,1,0,0, 0,0, 0,0],
[11,4,12,5,12,0,0, 0,0, 0,0],
[17,5,15,6,15,0,0, 0,0, 0,0],
[19,5,16,6,16,7,16,0,0, 0,0],
[1,6,11,0,0, 0,0, 0,0, 0,0],
[23,6,12,7,12,0,0, 0,0, 0,0],
[24,8,4,8,5,0,0, 0,0, 0,0],
[10,10,11,11,11,0,0, 0,0, 0,0],
[28,10,13,10,14,11,14,11,15,0,0],
[23,11,2,12,2,0,0, 0,0, 0,0],
[21,11,13,12,13,0,0, 0,0, 0,0],
[13,14,9,15,9,0,0, 0,0, 0,0],
[11,16,1,16,2,0,0, 0,0, 0,0]
]
